F    H    O    N    Ru   Si
   1.00000000000000     
  28.0645277156449993  -1.1397795484477700   0.3096122031958350
  -0.3686017002455530   9.3873141795019599  -0.0249709307651055
   0.3301027830451940  -0.0949920106376985  31.7532478999723011
F    H    O    N    Ru   Si
1  6  2  1  82  95  
Selective dynamics
Direct
  0.7680941881632535  0.6827446517144580  0.9462284248712010 F F F
  0.3572714382529090  0.3664257361057305  0.7350906445262831 T T T
  0.3755893698558277  0.5661024998621330  0.7493779641965364 T T T
  0.3425334330894308  0.5363851497391128  0.7093884562276063 T T T
  0.3402588379346310  0.2155139458632558  0.7051209283719677 T T T
  0.3929102331894788  0.2329351831575155  0.7196082477378229 T T T
  0.2570661191073974  0.3325835087535305  0.7147035915342872 T T T
  0.3491948486548652  0.5028617480290415  0.7388050206520195 T T T
  0.3603468039490715  0.2472840506167444  0.7308646002418995 T T T
  0.2616036880169227  0.3362462157409256  0.6826433404334183 T T T
  0.0225131216520253  0.0348122451870339  0.3728815384113844 F F F
  0.0190403755595179  0.2151119962662015  0.4398173533179323 T T T
  0.1214439384224377  0.0522822913669430  0.3722171837776997 F F F
  0.1205836828523985  0.2210174011865501  0.4387488032965219 T T T
  0.0754017482148932  0.9600262235089621  0.4374334767962403 T T T
  0.1703161238080620  0.9863094893053288  0.4368692635355529 T T T
  0.0758561441282239  0.2934453528406280  0.3737272253799873 F F F
  0.1692134839738060  0.3137504269503140  0.3715019777525725 F F F
  0.0206445285355328  0.0261516332917979  0.5059145037280236 T T T
  0.0052717272420055  0.1898600766858849  0.5819759840508588 T T T
  0.1200440377905606  0.0579931097021020  0.5051679848240562 T T T
  0.1229515596959424  0.2289319644847512  0.5748785021782506 T T T
  0.0760901097089716  0.9748903569859000  0.5760592315490847 T T T
  0.1712212287286987  0.9943713237527304  0.5745488370646726 T T T
  0.0732664804630824  0.2944163755891459  0.5075411886366626 T T T
  0.1707227861640047  0.3206002574119391  0.5044194257511115 T T T
  0.0291930082761943  0.8718649033713507  0.6457151661444140 T T T
  0.1236734424192789  0.9011481549134380  0.6408494578506322 T T T
  0.0782740443152074  0.1310608967289318  0.6424123834731705 T T T
  0.1692606345072294  0.1550459886968143  0.6406509248440685 T T T
  0.0241867917531522  0.5294146721234370  0.3734885974748821 F F F
  0.0253063243034122  0.7019416662936021  0.4413624146463881 T T T
  0.1206117506576661  0.5510053203615897  0.3720630047249927 F F F
  0.1209460910742542  0.7217020906738553  0.4384911524686089 T T T
  0.0745567789762524  0.4592210066716508  0.4398869283527995 T T T
  0.1701172305275328  0.4858573847430326  0.4364309432840570 T T T
  0.0772500129675890  0.7883942138027464  0.3720167742873883 F F F
  0.1713071972230154  0.8152406718416216  0.3719708960875892 F F F
  0.0158311922445007  0.5218737892890761  0.5091523620998251 T T T
  0.0245128503975165  0.7091905654995596  0.5772399421679154 T T T
  0.1208821008784219  0.5572250064651094  0.5059344838854670 T T T
  0.1184177731382331  0.7234994523802964  0.5756242697066387 T T T
  0.0760302359996028  0.4637488791554042  0.5767052759313097 T T T
  0.1690419571316311  0.4919325995828625  0.5737659425340267 T T T
  0.0749094686657804  0.7999170970986864  0.5070459131396425 T T T
  0.1696838395818926  0.8190239741676244  0.5042253687910306 T T T
  0.0240996272722502  0.3738654603748416  0.6464519918175244 T T T
  0.1210687403418403  0.3941136244861544  0.6411428320682830 T T T
  0.0741973149909272  0.6342403409354459  0.6428706428310774 T T T
  0.1670734966484269  0.6491974785210635  0.6409022678652881 T T T
  0.2199777320325040  0.0730715977560052  0.3707589696285325 F F F
  0.2194305731185626  0.2461638787275123  0.4364417032910515 T T T
  0.3182236518038408  0.0901766462898763  0.3687568710975242 F F F
  0.3195818411488556  0.2770692594612826  0.4339886328217936 T T T
  0.2655324837678272  0.0072541125171937  0.4355800200363261 T T T
  0.4746395433461643  0.2643448346254189  0.3887705824809302 F F F
  0.2628449944011209  0.3346103755381762  0.3694205691791836 F F F
  0.2185130604642728  0.0834403190048339  0.5037423876853770 T T T
  0.2174967025683297  0.2495485696678899  0.5713192358091898 T T T
  0.3192828112927589  0.1035845202541217  0.5039145751954294 T T T
  0.3121343464200964  0.2863711417543277  0.5734864612387945 T T T
  0.2636340013689728  0.0108983366107042  0.5738796842574251 T T T
  0.4460503030196520  0.1306175254599256  0.5689571708719366 T T T
  0.2693627809996677  0.3448939979751464  0.5027077823920519 T T T
  0.3700344720895050  0.3863950836752825  0.5003896964431250 T T T
  0.2175259081986347  0.9220449536471100  0.6398583955730710 T T T
  0.3112467126361593  0.9341290558400364  0.6409313209045874 T T T
  0.2737704344111124  0.1748144462159064  0.6423389431129349 T T T
  0.3703108611219241  0.1768441628047199  0.6319951553662683 T T T
  0.2181628171605894  0.5745956052057863  0.3705350816812896 F F F
  0.2190614867307141  0.7438881123664896  0.4363922380268846 T T T
  0.3269895532650366  0.5936662478480272  0.3670717001745700 F F F
  0.3190391399453290  0.7796393307481042  0.4365823344599859 T T T
  0.2664022375833786  0.5078011567641362  0.4342604280730921 T T T
  0.4423767087330794  0.5713702149313961  0.4423839013647636 T T T
  0.2647738838018157  0.8362004633893321  0.3695363028184460 F F F
  0.4413288410952926  0.0370488564803169  0.4416285470210419 T T T
  0.5358479757486210  0.9562073250703148  0.4776009724076034 T T T
  0.2183822380742342  0.5807808499676440  0.5039224676703400 T T T
  0.2168675494755860  0.7507971016395587  0.5744763547582353 T T T
  0.3135301714644183  0.6056120133689494  0.5046027800021320 T T T
  0.3098879855659756  0.7718426794717280  0.5730351137464356 T T T
  0.2653957680715632  0.5155220535630203  0.5750056848750584 T T T
  0.3650803059818767  0.5515960846278052  0.5736679752140168 T T T
  0.2640210561287151  0.8459696280854990  0.5035020931605179 T T T
  0.4999555111984878  0.7379779135197075  0.5433996162006283 T T T
  0.4092756030912656  0.8326508037688959  0.5622818284251782 T T T
  0.5354048563988187  0.1345456796070606  0.6095014419412580 T T T
  0.2168212022011110  0.4229264188876589  0.6437127612573905 T T T
  0.3100197056716378  0.4372377904389882  0.6414817143239161 T T T
  0.2597781840574011  0.6808795319641239  0.6407650028196246 T T T
  0.4421277558305619  0.8695538237240967  0.3631325749783230 F F F
  0.6418591519274486  0.2316627364756272  0.3767402062360574 F F F
  0.5813434564038406  0.6231812073474248  0.4190818465627801 T T T
  0.5301663351615056  0.3270681147904076  0.6573007463501946 T T T
  0.6129587969431608  0.5001386169707374  0.5797555874106488 T T T
  0.5227793530551467  0.6749873891685829  0.4735457800415240 T T T
  0.4099402486911271  0.3059513669448214  0.4362930963761241 T T T
  0.4535375792961325  0.2067844831715124  0.6468218624866559 T T T
  0.3999172040035926  0.3290875677052608  0.5724016718700450 T T T
  0.5252157394462411  0.1414189747822472  0.5340047929728030 T T T
  0.5150554937454551  0.4479008061240147  0.4284595236291222 T T T
  0.5398608816164678  0.5304859474604361  0.5478548548679231 T T T
  0.3552258089735291  0.0388747993197311  0.4360598672830242 T T T
  0.4064728475862735  0.1614608670896422  0.5028670538413791 T T T
  0.4033892815108744  0.7992088037924375  0.4327044037643035 T T T
  0.4074915745166763  0.1039131196118817  0.3676559388258269 F F F
  0.7084526364104694  0.5075279582346520  0.6334875428743461 T T T
  0.4166171936619278  0.5958026306589161  0.3704045116009240 F F F
  0.4465521060612083  0.5806917274044828  0.5908859303773726 T T T
  0.4993925254254847  0.0676536675592132  0.3449399711107972 F F F
  0.3463264167463934  0.6865128587916556  0.6384743405956207 T T T
  0.3552614379092570  0.0354280395136342  0.5699640263250759 T T T
  0.3996607976770315  0.9401735181036396  0.6336449849243204 T T T
  0.3486212452878874  0.3471248923554384  0.3624499208810050 F F F
  0.4892097226217160  0.8242718012780514  0.4203113942116090 F F F
  0.4582088065525122  0.9552922112283840  0.5111373504960101 T T T
  0.3546311326150679  0.5382533378314611  0.4362699177985214 T T T
  0.3550654148393591  0.8474608088784095  0.3645767415578263 F F F
  0.5069566011951716  0.7012546715657799  0.6260820709786434 T T T
  0.6495145052642742  0.7500236726764929  0.4980538831583312 T T T
  0.5476728712493513  0.3567695560368176  0.4941447142607412 T T T
  0.5984489214408888  0.9799499194317350  0.5956733629750053 T T T
  0.5855408597815810  0.9416767260166380  0.4160179380842592 F F F
  0.5691371918446821  0.5586390456961637  0.6448188646936066 T T T
  0.6611303486938311  0.8429252476259563  0.4266726796053106 F F F
  0.6972226311958291  0.0760492864530169  0.4026897518598289 T T T
  0.5211789615299860  0.1695904669708767  0.4390437173845136 T T T
  0.4203209698815408  0.6278337319399772  0.5136869105825722 T T T
  0.6612303619543128  0.9187308357880166  0.6411169789023058 T T T
  0.5885068172800985  0.0553488958721928  0.3460667466300151 F F F
  0.6298521623977075  0.3355502405092184  0.4843129193363854 T T T
  0.3517003074700569  0.8570196355845493  0.5065628430296656 T T T
  0.4939820325948228  0.3499356987137130  0.5866658574132655 T T T
  0.5828268527799262  0.8521617626678708  0.5314926959573252 T T T
  0.4855833150078024  0.9186665236233076  0.6021552426198745 T T T
  0.6459067614919740  0.6658175444876039  0.6405372885200361 T T T
  0.7676553900408136  0.2639199119690554  0.3953618353476235 T T T
  0.6691462696869969  0.5241817786410859  0.5236522823018016 T T T
  0.7489383339354282  0.5304784107572106  0.5526394194310467 T T T
  0.6383564339803056  0.4450880959160055  0.4169436379617712 T T T
  0.6969629163063544  0.6270998636237621  0.4061710316023621 F F F
  0.7770090107030255  0.7235941651435488  0.5073908874676716 T T T
  0.8357577336591321  0.5181195226225715  0.4163156208074091 T T T
  0.8045479728627305  0.3473341061962470  0.5630665209284099 T T T
  0.8277594208467693  0.2284126211226511  0.5017270344649862 T T T
  0.8803838330079976  0.3521659066440214  0.4522462644977036 T T T
  0.9247491927043736  0.4692532561126450  0.5119632473926244 T T T
  0.9879972814236956  0.9228729080778620  0.4396698782075621 T T T
  0.9373831524396136  0.3107484113292152  0.6256371231184900 T T T
  0.9857006325766512  0.4423653385257996  0.4409705460554945 T T T
  0.7707173554334054  0.6794140841901009  0.6150475255018459 T T T
  0.8725083398695131  0.9202372702522464  0.6409803647252311 T T T
  0.8118527871104035  0.4200649754942702  0.3502534465487273 F F F
  0.8838543391073518  0.4589175607850666  0.5822494792476912 T T T
  0.8565798567657112  0.6993254099327941  0.6016482248255947 T T T
  0.9853843520789088  0.7695180227833693  0.5113316315361011 T T T
  0.9958147143088064  0.1233490790538940  0.6598097728895610 T T T
  0.7624202946249601  0.1406687329566474  0.4600291979721689 T T T
  0.8090521287857464  0.0324099928474368  0.4037482328248209 T T T
  0.6286612953298961  0.1175113169009451  0.5220018321991329 T T T
  0.7173339569675343  0.8662108203142216  0.5278368752087343 T T T
  0.7719057877538426  0.6489934391686456  0.4378665994423661 T T T
  0.8735846071108897  0.2099267944154026  0.3859053437383881 T T T
  0.8229724344624287  0.7824609367446129  0.3897867536047315 F F F
  0.7554032657947189  0.0647091236414994  0.3480137613368797 F F F
  0.6146746993930782  0.2465833472344837  0.5919103235683407 T T T
  0.7325038724054325  0.8996127314956622  0.6002734499482207 T T T
  0.9501864651861496  0.4887963849044752  0.3275024562855648 F F F
  0.8765597394540878  0.0535938102883343  0.5270143474714960 T T T
  0.8998214078050311  0.7665174303715183  0.4211446121554118 T T T
  0.9926997092587228  0.7741032295071406  0.3744817692358424 F F F
  0.9197935206251244  0.0815666156040513  0.5916893558795594 T T T
  0.9067179401664308  0.7054368752236583  0.4926160990142588 T T T
  0.8501234953542667  0.8081184478501618  0.5342943485307148 T T T
  0.9415550535553586  0.0904092090393986  0.4772438243621973 T T T
  0.9464450898980460  0.1055679372572672  0.3994109737564769 T T T
  0.9499960322748844  0.8908816491038563  0.6597664301738911 T T T
  0.9903161120735088  0.4725728899504525  0.5853529545122709 T T T
  0.9859362499212656  0.2750487804881782  0.5153691725708571 T T T
  0.6866310553654476  0.2521410372260363  0.6325491032653447 T T T
  0.7473639911737475  0.1603041888239832  0.5887799444079221 T T T
  0.7131763964393072  0.1105570156879510  0.5208414821230972 T T T
  0.9351169258022988  0.5615805397658394  0.3977067631600124 T T T
  0.8795795718238750  0.3346124203324194  0.3149859785471136 F F F
  0.9887805478132800  0.9324228106980450  0.5783203501316917 T T T
  0.9950942339895784  0.2794725391693811  0.3545832911015340 T T T
