POSCAR file written by Ovito 3.0.0-dev349
1
29.173 0.0 0.0
0.0 28.859 0.0
0.0 0.0 28.828
C H O 
240 86 43 
Cartesian
11.3036349191 13.1822429955 20.6363221137
12.424749587 12.2931961467 20.7074760231
13.7326537852 12.7078781259 21.1737300652
14.9046469503 11.8494232429 20.9425038553
16.1708990611 12.5023885496 21.1285893219
17.3454769635 11.7112755962 20.8617162082
18.5573121384 12.2745512145 20.3702426318
19.2895540039 11.3541266476 19.4205060136
20.0247487855 11.8220890294 18.3069884216
20.070440134 10.9807768589 17.1434468501
20.8050435864 11.4851721342 16.0159823502
20.5943775659 10.8605924937 14.7332714121
20.9762914267 11.5277802085 13.5108328297
20.3948468433 11.2541260093 12.1849721087
20.4050480217 12.2853519834 11.1624943682
19.5068217173 12.1531056631 10.015760201
19.3684628197 13.3374858316 9.1950069528
18.3669073989 13.1685516312 8.1375735456
17.65471998 14.3265579382 7.5959771909
16.3192625968 13.8780960782 7.1752599115
15.1402113531 14.6916181499 7.321794356
13.8769655079 14.0495464378 7.425919603
12.7435848305 14.9019995016 7.7277371485
11.4703083826 14.3082227706 8.1803861858
10.4058496949 15.112352953 8.6719688647
9.4361537236 14.627552821 9.6494085096
8.9073305507 15.5919820249 10.6112210543
8.2015480828 15.063939271 11.7189333217
7.7684544888 16.0275631457 12.7504086072
7.162707332 15.4561085644 13.9456901869
7.3613064133 16.1520218831 15.2248799657
7.3400386053 15.1172859233 16.2417843426
8.1335013857 15.2944170606 17.5181589051
8.6088710291 14.0488771522 18.0276236394
9.4801274241 14.1711099342 19.2303926393
10.2080790754 13.0282042668 19.7310203726
11.4960206044 14.494178484 21.2320319633
10.8176536878 15.6260120513 20.6342281803
9.7640980057 15.5410440589 19.6345505629
9.6176669353 16.7382093146 18.8520693193
8.7800829677 16.5500098265 17.7024674643
8.7591067258 17.5685010336 16.6336882273
8.1071541609 17.3533345978 15.4062111835
8.6103433222 17.9655442926 14.1478377251
8.4346549922 17.3155216724 12.8502970339
9.0452136571 17.8397655152 11.7098224761
9.06739566 17.0479644485 10.5001841197
9.8928819725 17.429980872 9.4161639279
10.580291875 16.5511944713 8.5305649829
11.8350470857 17.1344616783 8.0712651787
12.9349999241 16.2798137049 7.8160985354
14.236610424 16.9091681304 7.8353213066
15.3733446213 16.1014601508 7.6311288639
16.7081499564 16.5632899348 8.0570372308
17.8265416572 15.6433015944 8.1612961587
18.9169602599 15.8040254515 9.091777359
19.6407652058 14.6430056587 9.6197799651
20.6026715191 14.8267810493 10.7151849264
21.0030118971 13.611450056 11.3414726697
21.7477637094 13.7601856239 12.613962506
21.8172696784 12.7404221298 13.5851355077
21.9376076933 13.3358522901 14.8992589179
21.3450309513 12.8341156541 16.0918115482
21.0223966154 13.8020867733 17.1857063546
20.2796198451 13.2767282701 18.2404833933
19.6198987864 14.1817067492 19.1597151809
18.6805884819 13.7018549846 20.224208305
17.6693231177 14.5640687441 20.7381799473
16.4047872624 13.9513236286 21.1709901091
15.2143597872 14.7970154249 21.3501523049
13.9652211167 14.0854226574 21.54529013
12.8177381799 14.9609530269 21.6821685792
12.8513073632 16.3688752481 21.4942033853
11.6061755557 16.8294213109 20.8807914676
11.5801599536 17.8843349629 19.9137083312
10.5199326455 17.8752352778 18.9084980663
10.4684966745 18.8970623418 17.9022610021
9.5454473404 18.7965814745 16.7925154733
9.7576937803 19.5874776119 15.5771612862
9.350254473 19.1781244755 14.2254065783
10.0390047075 19.7564765388 13.0674986053
9.8841305638 19.0663998626 11.8010034354
10.8955965468 19.3609715119 10.7901871087
10.7577982421 18.6568881273 9.5403675227
11.9626780954 18.4194395598 8.7781807865
13.2503506112 18.9472023372 9.0919123662
14.4011077713 18.2382960202 8.5291661946
15.6577142936 18.6172991661 9.0176021859
16.8615771104 17.7976775458 8.7787324318
18.0897033271 18.1388348454 9.3996301387
19.0549843067 17.1194209506 9.7648983165
19.9374167903 17.1984846983 10.9224031593
20.7334853886 16.074043741 11.3845068537
21.2815331638 16.2057712061 12.6961969067
21.9112737599 15.0510354864 13.2174592012
22.0394691515 14.7776972364 14.6781948476
21.533774848 15.754565519 15.6035343368
21.0901780706 15.1903524931 16.8682896705
20.5115238614 16.1501309354 17.8252865357
19.774754057 15.6768224171 19.0143951021
18.8400930827 16.509840273 19.7734948145
17.6767787568 15.9624421924 20.4717469147
16.5424069449 16.8144605299 20.6944854286
15.3258480476 16.1926253683 21.1409888632
14.131562901 16.989336131 21.0539319631
14.0685830163 18.2379539146 20.2926306174
12.7889983787 18.6677312959 19.6897001205
12.7290560366 19.7169836775 18.6551240447
11.544693477 19.8699340122 17.8844564762
11.5669195614 20.8375808559 16.8494662436
10.7007470502 20.6371955278 15.668766545
11.345502073 21.258475922 14.5055410165
11.1724235256 20.6302379647 13.209905
12.2655177612 20.8052229679 12.2969413763
12.1452065226 20.0908916753 11.0450978501
13.3119234778 19.9106556131 10.2267258197
14.6157918741 20.3744124756 10.610371703
15.722475607 19.7907818341 9.8867623507
17.0223569618 20.2095566201 10.3378431986
18.1848695526 19.4033540289 10.0939240817
19.0454644681 19.4600284864 11.2643597042
19.8506806191 18.4112548316 11.7420061624
20.1894688293 18.3860799026 13.1896720617
20.9824170821 17.28384322 13.6770610323
21.066906501 17.0014827663 15.1064108306
20.4186643793 17.9385295936 15.9660831617
20.3084413659 17.4660363813 17.3686018606
19.5907061195 18.3695052146 18.2497300252
18.8710241077 17.8704252964 19.4044413897
17.7287560572 18.753358111 19.6909673138
16.5551957623 18.1787455236 20.1456806862
15.2926244721 18.8644977905 19.8508368717
15.2753092585 19.8177195238 18.7672182655
13.9800707421 20.3301918578 18.2710227949
14.0928907537 21.1161212901 17.0322642325
12.834655619 21.4697374095 16.420509838
12.6801622874 21.6925380034 14.9868797689
13.8367765347 21.5785351504 14.0968524092
13.5877638392 21.1905275113 12.7295961184
14.7243231633 21.0493538177 11.8880543468
16.0665966057 21.1474316523 12.515210162
17.1903590946 20.8406613713 11.6691320098
18.4650283741 20.4461689796 12.2245434815
18.6478011706 20.3269693431 13.6409601905
19.5506688381 19.3365016986 14.1092539765
19.692112145 19.1037913915 15.5353529532
18.8163293232 19.9261288306 16.3980533955
18.8590756897 19.5783828273 17.773641872
17.7252088251 19.7910681107 18.6227161614
16.4662489941 20.2474589315 18.07474191
16.4792634316 20.8014214281 16.7052602703
15.2431466593 21.258458778 16.1764366316
15.1162828972 21.4695782251 14.7580467772
16.2891881346 21.2549208006 13.9257963173
17.5309028574 20.7656172107 14.4925817596
17.6374877656 20.6074550326 15.893046105
17.1846808999 10.4236352264 20.1991945218
18.3513188354 10.2544445457 19.3295952883
18.2994147766 9.5186535216 18.0866081838
19.1343471533 9.8557992667 17.036024604
19.064323139 9.1705506859 15.7451822855
19.7346758907 9.7183233971 14.5887300226
19.3893312102 9.2412216774 13.2365472095
19.5523631741 10.1330223335 12.0660413771
18.6458765185 9.999378825 10.9706726552
18.6855244533 10.9591614609 9.9245352675
17.5781181806 10.9230063495 8.9437890725
17.5407514224 11.9772683298 7.9897653122
16.2803568452 12.4349067021 7.4019240541
15.077357658 11.8209117033 7.8123808709
13.7829709122 12.6242118178 7.6932848462
12.5809222462 12.0674231533 8.1421845551
11.3764657541 12.8875069161 8.3664327328
10.2214508707 12.370040155 9.0517771942
9.3529061127 13.2321968446 9.8713339967
8.7279122848 12.7505516435 11.1015077797
8.027899334 13.6542961723 11.9445697145
7.6127857977 13.1512971626 13.2018708187
7.012562394 14.014218989 14.1793317677
7.2316813733 13.8433226924 15.6249624352
7.8514976605 12.6253090434 16.1368457084
8.4365767954 12.7831563628 17.3965193925
9.2485842526 11.6618133121 17.9014794169
10.0805444952 11.7609573175 19.0608877071
11.0501269668 10.7239463516 19.3814781472
12.3064558724 10.9726564167 20.0571091209
13.4138054499 10.087220758 19.9302557492
14.7287924605 10.5600278563 20.3490735864
15.9201837762 9.8861548273 19.840371501
15.8361514102 8.9412930106 18.6995330977
17.041401253 8.7928957999 17.8592905626
16.8480620931 8.108021544 16.5291600685
17.9332595287 8.2307831642 15.6391050571
17.7191702666 7.7223590678 14.320469378
18.491305028 8.1306499724 13.0814151708
17.5999254832 7.9969208748 11.9448704329
17.6412678582 8.9440340157 10.874641111
16.3679367074 9.1766997605 10.1867282078
16.3798407394 10.132298571 9.1249222643
15.118135402 10.5820149159 8.5138905238
13.8924817896 9.9063282266 8.9614284529
12.6758771101 10.700683979 8.6650883887
11.4496000798 10.1462972104 9.1765542958
10.2649604193 11.006040452 9.4005912505
9.4882324465 10.4269642591 10.5037423158
8.7850072744 11.3249154548 11.4533604636
8.6651904155 10.9076186536 12.8110575487
8.0847584142 11.8634861388 13.7218535001
8.2417877123 11.5844424072 15.1332559816
8.9330097179 10.4608908188 15.6815435233
9.1902456483 10.4028281039 17.0462552617
10.0696250577 9.3350701068 17.531084026
10.9578853347 9.472657708 18.6973134421
12.1045411269 8.6338535481 18.4217763631
13.3576816213 8.9806058413 19.0138379277
14.5402446356 8.4827453022 18.2677335131
14.3886454056 7.8099497121 16.9912547851
15.5521857177 7.6696676268 16.1657724658
15.3500321224 7.29183613 14.7499601496
16.4544328596 7.1924423943 13.9200683597
16.3191849561 7.3684528904 12.4194853704
15.0879732476 7.7690593465 11.823964436
15.1597239249 8.6305139987 10.6416082975
13.8550956701 8.9777593036 10.080234727
12.6566913712 8.5356124597 10.7553240656
11.4376828191 9.0878952278 10.1885687896
10.2408222639 9.2987226477 11.0326858368
10.2993012129 8.977240235 12.4199141383
9.4074077575 9.7835894365 13.2953033063
9.4896867767 9.4994958285 14.6872787915
10.5109142104 8.5999606459 15.195199065
10.6865271308 8.4299496015 16.61008292
11.9662592745 7.9175766672 17.2000791226
13.0899895135 7.653610329 16.3146457493
12.8748768084 7.6526163412 14.9141999832
14.0081729331 7.399188977 14.0763031122
13.9113623749 7.606585771 12.6876553944
12.6603072934 8.0467432215 12.11120959
11.4865549416 8.3407875267 12.9608149646
11.5698008291 8.1298819565 14.3371277672
13.422583049 16.2709099654 10.9714882891
11.903654521 15.5811729253 10.8616868589
14.4970079148 11.1072366254 17.3592397059
14.11067402 10.0443993711 16.2543354463
16.3309515989 13.4924676555 14.7855543144
16.3081438998 15.1315548825 14.996800016
15.0426233798 15.1855063525 17.6670797661
15.5248070172 14.470282018 19.0335928041
15.7673832116 12.5120380815 11.7326582703
17.0231697911 11.9897736384 10.9587608856
13.297018639 11.1777485333 14.7435303861
12.3913556587 10.5188585834 13.6647463522
13.6896917038 19.1459567162 14.0853506553
12.280839423 18.3838255088 14.2970716896
15.3590883275 16.519073876 13.7193049617
14.5117622154 16.2773175769 15.1202090088
10.9660947137 11.5894310874 12.7920314987
11.166426479 12.75086642 11.6452287698
11.9475461679 14.5037580549 12.6859078492
10.402823044 14.72790095 12.3410752232
12.5752492268 14.2343215917 14.8273379973
12.2108089073 12.8189413721 14.0069069845
19.1671037626 15.5238297867 14.1431615194
18.3974899618 14.1078909057 14.3709720542
11.2066146526 13.8933773668 16.3547818799
11.4371499379 14.6559122389 17.77817292
14.4675993566 9.7886505278 13.5688483541
15.5304341537 10.4053623782 12.532124555
13.824379054 15.3196331963 13.5848133403
12.7143478152 16.2957554167 14.4814192217
12.7669622926 11.0637849698 11.3693705653
14.2430170879 11.5475895111 10.8296618614
12.2023805154 11.113626005 16.8924873092
12.6210508444 12.5243654412 16.1770708708
15.9734064977 13.649490979 10.0340590487
17.1667604214 14.5612980475 10.7935732366
14.5450436714 17.0820844512 16.9647792495
13.9578345634 18.5588873896 16.7618837236
15.0960968855 11.9523806549 15.5214273466
15.8643731807 12.8772555202 16.7646346081
18.1705125165 12.1577934989 14.8446950106
17.990299995 12.9084596876 16.3237412227
17.3737157269 16.8916606721 14.6006888475
18.3623438039 17.0562674444 15.7764563743
15.3710413181 16.338370476 11.6888220863
15.4824846024 15.870798093 10.1321391267
13.2940821711 14.7631591415 18.856253592
12.9658879376 16.2814228012 18.3132275818
17.2522251592 12.6303132369 18.4747805658
15.7123866135 12.3278832661 18.8302268576
16.8481448324 10.9758015846 16.1180476579
16.1659506537 10.2298114388 14.7617014703
17.1043172556 14.6528101292 17.5146929072
18.1011864027 15.0728368889 16.2765542371
10.8341612854 11.9072357541 15.2943448718
10.1466764989 13.165419152 14.3624487405
11.8568524719 17.0149197658 12.3791637408
10.78561876 16.8886497582 13.6423887116
12.4188730755 17.2824286908 16.3208110329
11.2748912853 16.085856757 16.189099556
13.5513995775 14.3706500149 9.9406709686
12.8801228571 13.4014481263 11.0066076397
14.3595216396 13.2411350064 13.9715361775
14.0509709313 12.0234998758 12.856824822
17.6207786466 17.2107794739 12.2651045044
17.2716357438 15.7608713296 12.8843037336
16.4555448382 18.4950670877 16.0062291771
15.1048670188 18.2153392793 15.1201367206
13.9901955717 13.2438483885 17.5071661104
12.9207415825 12.6338861071 18.4516685929
9.5362321078 15.0459856208 15.2640837142
10.8201812848 15.1623731881 14.3823847314
14.4086621997 14.2969268105 15.7120888233
13.1584794097 15.0730238562 16.3982202911
16.4179782619 16.5054099907 16.6032322231
16.5964527114 17.1608203626 18.0103904608
16.3234632322 11.9041234067 13.6021913869
17.5909532467 10.9716562684 13.013059997
18.8106178914 14.2931593919 12.3461510587
17.5586527618 13.245954233 12.5271939606
15.726887368 18.3788845515 12.3198927709
16.5652295277 18.630383489 13.7462824233
14.5819752436 14.2340470007 11.8283838972
15.7832190741 14.4568935348 13.0213007398
13.6193815154 18.2431022892 11.6896398115
13.862540166 17.2942403248 12.9053278496
12.424460354 16.4222506758 10.9194688632
13.7899387331 10.5353681641 17.0209503697
16.6640491097 14.3724432804 14.4252110395
15.7462342405 15.1490904889 18.3652074095
16.0663622712 12.1716810648 10.8719472801
13.0623570534 10.3255174146 14.3383191586
13.0213712504 18.8727083039 14.7275578771
15.4052909999 16.4940514512 14.6948748981
11.3645598049 11.8185151861 11.9214087118
11.2623885832 14.4136831546 11.985336691
12.8497950807 13.2628345258 14.6741352582
19.1779662121 14.5417364711 13.962724794
10.9256452759 14.6325657601 16.9148495666
15.4330850191 9.8307954419 13.3095232072
12.8614607092 15.516604199 13.8316591341
13.7580994267 11.0837931487 11.5311042246
11.8725021136 12.0100910202 16.6097645254
16.4598554326 14.5221376858 10.0701503044
13.8106266148 17.6806351957 17.1718615703
15.284320169 12.8821042614 15.92028311
18.1107909179 12.0380187199 15.8277847149
18.3035048539 16.8108476658 14.8515101334
15.0679598353 16.5357606653 10.7632076358
12.6024543206 15.4674694538 18.6937278908
16.4261782934 12.2136806962 18.1756502302
16.0216461686 10.5927433846 15.6875309854
17.9474792665 14.4346918941 16.9994058996
10.6734930148 12.2989755839 14.3684117928
11.3875833174 17.46986558 13.1537079347
11.7587808936 16.8400973252 15.717129645
13.7081701784 13.6248161189 10.5499052983
14.7604659474 12.5314711437 13.3838968867
17.6762712077 16.2278061582 12.1392127691
15.863913954 18.8108320867 15.2669975876
13.7223991374 13.1693269904 18.4393780449
9.9032607782 14.8289366376 14.3917526773
14.1198954385 15.1046244902 16.233380433
16.862726886 17.2224880003 17.0869579385
17.3140664988 11.8330397242 13.4088618845
18.1400773277 13.7120554713 11.8680507019
16.6179552835 18.4464160089 12.7613761404
15.0055210823 14.878675993 12.5063224598
14.069990264 18.1646833112 12.5587337947
Cartesian
2.5038393965e-04 0.0051364646 -4.4300309363e-04
-0.0031208705 -0.0025212257 0.0037226291
0.0051512292 0.001674991 -0.0023146517
-0.0150719581 3.9931692363e-04 0.0040835145
-0.0026582447 0.0042719787 -0.0039024194
0.0098728083 0.004025936 0.0117003692
-0.0060042514 0.0105193542 -0.002437715
0.0113837143 -0.0029085836 -0.002828103
0.0024985617 -0.0071893265 -0.0030633951
0.0026422278 -0.0094774495 0.0037968275
0.0114758099 0.0069487473 -0.0090599235
-0.0065899887 0.0026146376 -0.0025298273
-0.0028270287 -0.0016068152 0.0087318867
0.0040068744 -0.0016220085 0.0020877136
-0.0030052643 1.2540581857e-04 -0.0022665016
0.0097328317 0.010882815 0.0118334626
-0.0084983647 0.0036629277 -0.004032737
0.0010468843 5.2542169802e-04 -0.001847236
0.0056141108 -0.0036765716 0.0141584176
-6.1468738073e-04 9.235574648e-05 -0.0039901908
0.0090961639 0.0076836274 1.0889466645e-05
-0.0060511942 -0.0078409633 0.0024855589
-0.0059180053 1.552349077e-04 0.0037900101
-0.0040324808 0.0060651255 -0.0031211058
0.002425347 -0.0172426885 0.0013328574
-0.0042554043 -0.0111111836 8.1739464274e-04
0.0010371973 -0.007327829 -0.0015359831
0.0018657156 0.0017886667 -3.2959459584e-04
-0.0021346279 -0.0068604127 -0.0014395352
-0.002346101 -0.0061787371 -4.5580916292e-04
-3.4019097803e-04 0.007634236 -0.0051464277
0.0029307522 -0.0104767679 0.0095892286
3.1729016395e-05 -0.0013207033 -0.001133249
-0.0022572137 0.0080839798 -4.316663515e-06
0.001961975 0.0067677251 0.0019510092
4.504754037e-04 -1.2146603151e-04 0.001938516
8.9866620696e-04 0.0029572253 0.0040773258
0.0070672579 5.9389243051e-04 0.0040577719
-0.0100634764 0.0010757186 -0.0016712696
3.4388071358e-04 0.003476327 0.0053191927
-0.0057349443 -0.0071440042 -0.006293128
0.0058878504 0.0043041284 0.0063733325
9.8991289963e-04 3.4499929029e-04 6.4823446288e-04
0.003006899 0.0106838564 0.0060470807
-4.6841666094e-04 0.0011236166 -0.0075721175
0.0030724063 -0.0016378125 -0.0043560768
-0.0030691822 -0.0022391089 -0.0046459964
-0.0134727241 0.0127193428 0.0023817644
-7.4746941379e-04 0.0041053196 0.0040976439
0.007684188 0.0052239422 -0.0123902999
0.0013262364 -0.0051037346 -0.0043442222
0.0040194183 -0.0031653513 -0.0051651309
0.0129369971 -0.0064415831 -7.6490131631e-04
0.0034765158 -0.0019503038 -0.0038147503
9.853427622e-04 -0.0058613599 -0.0018011645
-0.0025540213 -0.0059357275 -0.0029345757
0.0010736303 0.0020448231 -0.0058742703
0.0028105187 -0.0063053822 0.0116263715
-0.0012806068 0.003707743 -0.0058991874
-0.002050635 0.0042924072 -0.0091891186
0.0052939589 0.0027720669 0.006824031
0.0018112059 -0.0016096812 0.0046088578
0.0041437738 -7.4765543349e-04 -0.016977656
0.0060593016 0.0077236557 -0.0037999948
0.0013095577 0.0172422993 0.0090159388
-0.0072149568 -0.0017180961 0.0069495495
0.0139939097 -0.002300835 -0.0053010181
0.0061181052 -0.00843655 -0.0015320516
-0.004788928 -0.001008713 0.011451622
-0.0048666247 -0.0014439189 -0.009332248
6.9692177438e-04 -0.0058021176 0.003888756
-0.0027284926 0.0065398933 -8.7520322248e-04
0.0105976785 0.0036084717 0.0019847278
-0.0031972604 0.0043836216 -0.0065166667
6.1345741051e-04 -0.0021972483 -0.002086908
0.0027730993 0.0023204794 -0.0070154023
0.0010429381 0.0053852193 -0.004734129
-0.0024646464 -0.0042855289 0.0039311737
-2.409371441e-04 -0.0101493838 0.0053513199
0.004264447 6.5117810166e-04 -0.0037246616
0.0048609389 0.0019586468 -0.0037730571
-0.0032361966 0.0034226925 0.0023262851
0.0096530802 0.0036335938 0.0053324113
-0.0018528588 8.317590164e-04 0.002915676
0.0021386727 0.0074950977 5.7091719108e-04
-0.00561497 0.0011080058 -0.0071591014
-0.0122603255 -0.001547692 0.0025358063
0.0131063503 -0.0058897467 -0.0064526697
-0.0099614473 0.0078609296 0.0067879108
0.0049637884 -0.0013358774 -2.3634186661e-04
2.3807667417e-04 -0.0092388078 -0.0030074838
-1.2708313641e-04 -0.0029078467 -0.0017178593
0.0010490397 0.0033188108 0.0065114352
-0.0092009856 0.0053735319 -0.0128754975
-2.6621840884e-04 -0.0015392889 0.0036165015
-0.0063397226 -0.0032517784 -0.0037875309
0.006654103 -0.0012064716 -0.0033231209
-0.0086815574 0.0034514987 0.0032963095
8.5281084382e-05 -0.0071293226 0.011663374
0.0031831302 -0.0028306239 -7.1022793829e-04
0.0016930174 -0.0037932698 0.007213416
-0.0053016589 0.003376845 0.0015940061
0.0085155607 0.0042233243 -0.0014169292
-0.0140612381 0.0063634114 0.0092800364
0.0031857225 -0.0078586317 -0.0056010827
0.0032766368 -0.0021453758 0.0010074665
0.0038928015 0.0145538359 -0.0011600299
-0.0027834424 -0.0041896356 -0.0022411213
-0.0020678719 -0.0069493756 -0.0020408293
0.0096496595 -0.003896093 0.0059268652
-0.0051261913 0.0069013153 -2.638988849e-04
0.0051145774 -0.005267873 0.0036337921
2.0379390791e-04 3.1673664308e-04 0.0011416493
-0.0107740033 0.0028002407 9.0641941609e-04
-0.0064922234 0.0029002872 0.0084367612
-9.4224812992e-04 -0.0057795654 -0.0057978485
0.0031440402 -0.0014041356 -0.0023012656
-0.0036635756 0.0020725319 -0.0025286745
0.0081419383 -0.0020315254 0.0067143029
8.7866151376e-04 0.0141158296 -0.0053794847
-0.0010747528 -0.009038965 -0.0037404214
0.0126057108 -0.0012441297 -0.0024934164
-0.0057941859 0.002497114 -8.3846751489e-05
0.0103766567 -0.0127012957 0.0046610204
0.0078969294 -0.0023968582 -0.004465942
6.8616110545e-05 0.0031153517 0.005557592
0.001049224 0.0017546676 -0.002700747
0.00780505 -0.0027449845 -0.0088531436
-0.0023495272 0.0034736293 -0.007474358
0.0013860667 -0.0047741326 0.0096278931
0.0027320098 0.0079563935 0.0087712136
-0.0140833761 -0.0051763076 -0.0067249239
0.0033135483 0.0055886445 -0.0064170025
-0.003732405 3.1203613904e-04 0.0035370211
-0.0033468687 -0.0051946633 0.0024392723
-0.0089555321 -0.0068808471 0.0034477969
-0.0064068033 0.0043395525 0.0029690767
-0.0058007024 -0.0017670283 0.0064187657
-0.0098533024 -0.0034798748 3.3129625437e-04
0.0025310909 0.0072121377 -0.0025427598
0.0030593601 0.0064488213 -0.0039109974
0.002246893 -1.141420691e-04 -0.0010071764
-0.0035675448 0.0110503549 -0.0034186162
0.0054133876 6.3300867485e-04 0.0031177883
-7.8741650689e-04 0.0057114746 0.0046818314
-0.0029730547 6.9231012948e-04 -0.0069103221
-0.0024962854 0.0035836213 -0.0010086843
0.0120605356 0.0089776687 0.0035665928
-0.0032135994 0.0015765171 0.0034699314
-0.0167021606 -0.0028795127 7.71579166e-04
6.6667078829e-05 -0.0022799601 0.0026614756
-0.0048304954 0.0073667829 -0.0051554603
0.0110698964 -2.0994934971e-05 0.0060412884
0.0042811385 -0.004364345 0.0023914863
-4.5213067012e-04 -0.0054652885 0.0040236254
-0.0066138329 0.0056260707 0.0026926894
-0.0092310899 -0.0044775305 0.0027501159
0.0076318378 -0.0058217794 0.0034610697
-0.0079856257 -0.0082180355 -0.0072693288
-0.0010213731 0.0041190357 -0.0014619849
-0.0032555857 -0.0074807507 -0.0039666433
-0.0028338141 -0.002806294 -0.0017102339
0.0078610243 -0.0025935425 9.0412427164e-04
-0.0056478873 -0.0030453035 -0.0056694428
-6.1564446365e-04 0.004454613 0.0087109709
0.00746824 -0.0072437064 3.464343822e-06
7.4920877081e-05 0.005472702 -0.0088153328
-0.003854912 0.0091280164 -8.8998609593e-04
5.5549153992e-04 -0.0022614986 0.0027077448
0.002251259 0.006840349 0.0020230095
-0.0073593589 -0.0061399631 -0.0024230403
0.0042809472 5.175922756e-04 -0.0071260698
1.6788538875e-04 -0.0062488366 5.7515878188e-04
-6.3079247225e-04 -0.0055683142 0.0031908417
-0.002309964 0.0074451803 0.0054922687
-0.0036898887 0.0084124761 0.0092845408
-0.0019313388 -0.0063548985 -0.0049154744
0.002484759 0.0079635761 0.0039479607
0.0081214773 -0.0034062069 -0.0044696222
0.0069163703 -0.0073079122 -0.0075740661
-2.7082881301e-04 0.0087915643 -0.0064943291
-0.006325077 -2.5623459329e-04 -0.0094632692
0.0040703695 -0.0010965534 -3.7152511825e-04
-0.0020833771 -0.0046922594 0.0052337622
-0.0042316019 -1.7639771656e-04 0.0019630318
0.005173303 0.0022585997 0.0012273599
0.0020279071 0.0025606743 0.0055265519
0.0138231156 -2.4729377619e-04 0.0034955565
-0.0054756926 -0.00235346 0.0022781186
0.0092480127 -0.0061542347 -0.0023944533
-0.0081880206 3.0974261256e-04 -0.009271244
0.0090084214 0.0021352993 -0.0013850674
-0.0134746083 -0.0050779864 0.0044482701
0.0018559378 -2.5938707885e-04 0.003550421
-0.001088918 0.0018538996 0.001499048
0.0058483176 -2.8587455532e-04 0.0080016197
-0.0025457041 -0.0018633777 -0.0144455574
-0.0049986557 0.0060360798 -0.0115006425
0.0014581372 -0.0095465555 0.0051494712
0.0086335298 -8.2400665782e-04 0.0022233962
0.0010591041 -0.0055309188 -1.8618696244e-04
0.0019457029 0.0017330869 -0.0035414183
-0.0107279357 -0.0066642119 0.0105712242
-0.0043977068 0.0017534829 0.0046842473
-0.0018140455 0.0109572923 -2.6369091352e-04
-0.0041622381 -0.0017172999 -0.0099532748
-6.9100799756e-04 0.0100471409 0.0067852752
-0.0018689392 -0.0051630217 7.5820347804e-04
-0.006053491 0.0111818247 0.0131734936
2.0196026824e-04 -0.0026191358 -0.0017631892
-0.0014776819 -0.0058388224 -0.0047364157
0.0011927574 -4.9399450495e-04 -0.0076090869
-0.0136016473 -0.0030488786 4.6996320039e-04
0.0036753053 -0.003430365 9.6003868588e-04
3.3127000198e-04 -0.0058653081 -0.0073503252
6.5052260191e-04 -0.0034093677 0.0028794808
-0.0064787123 0.0058549165 -0.0042330358
0.0043538347 -0.0015334274 0.0059477243
-2.4598305922e-04 0.0024879998 0.0010058601
0.0149846081 0.0021281757 -0.0037604848
-0.0054338968 -0.0052052568 -0.002886624
-0.0081620771 -0.0028373774 0.0082503338
0.0033509637 -0.0015928663 0.0148713095
-0.001571001 0.0032175926 -0.0033039491
-0.0049184746 -0.0030127139 -0.0024388591
0.009201261 1.8659956545e-04 -0.0024747177
0.0032427541 0.0023417385 0.0021228749
-0.0046682904 7.3713547809e-04 0.0076094767
0.0055400821 -0.0031751768 -0.0062375113
-0.006703264 -8.1430042347e-04 0.0032295096
0.0057956346 8.5856079191e-04 0.0042505772
-0.0012119289 -0.002692144 -0.0063466652
-0.0129961576 9.9847657516e-04 0.001210797
0.0112027845 -0.0069423356 0.0015385893
3.2368826956e-05 0.0037115737 -0.0056510044
-0.0032153043 -5.9464339152e-05 -0.012054431
-0.0082585859 0.0063450194 -0.0056222918
0.0048421122 0.0014579806 0.0068311152
-0.001615606 -8.2374942325e-04 -0.005594036
-5.0637169016e-04 -0.0041127218 0.0033114419
0.0020954191 0.0019659958 -1.328933376e-04
0.0011995968 -0.0047849708 -2.9227832978e-04
8.4547396754e-04 -0.0043229268 6.5652652687e-04
0.0016794916 -0.0037132515 0.0019494802
2.313272835e-04 -0.0011615606 -0.0015972586
6.4853090041e-05 -0.0014419938 -3.5395092708e-04
0.0027205463 0.0013083447 -0.0023842918
9.4990230044e-04 0.0017624549 0.001334229
-0.0049192578 1.3070438298e-04 -0.0015637809
-0.0042707359 0.0062669506 -0.0030161291
0.001222737 8.8895590217e-04 -8.0242558626e-04
-0.0017900716 7.7358238353e-04 0.0025751287
0.0025166315 -9.2430249533e-04 -0.0017135266
0.0026837537 -0.003062745 -5.3749774636e-04
-0.0014895177 3.561393484e-04 5.6022364196e-06
-7.9973598895e-04 0.0065407223 0.0021474178
-0.0041225421 0.0013876024 -0.001211624
0.0019555299 2.87129485e-04 -9.0741197163e-04
-1.3936603925e-04 -8.1063114836e-04 0.0012796352
7.3946033936e-04 0.0018321459 0.001197833
-8.7831231802e-04 0.0016335988 -9.9538388447e-04
0.0013251499 -0.003031944 0.0010544934
-8.6545998313e-04 0.0025701247 0.0023727748
-0.0030658112 -0.0044391273 0.0018503828
-0.0019179408 -0.0018568022 -0.0018804555
0.002394565 -5.4857880528e-04 8.0851894999e-04
0.0022951237 0.0012508264 2.2053160591e-04
6.1845551301e-04 3.9961672732e-05 3.2359312616e-04
0.0015674239 1.7730380777e-04 0.0015197381
0.0021789802 -0.0027646383 4.0561368807e-04
-0.0013720772 -0.0038291847 4.683851587e-04
-1.3635326119e-05 -6.1347887309e-04 -0.0013334165
0.0020484087 -0.001451892 0.0018304296
0.002370421 0.0035294045 6.8144099468e-04
0.0022369158 -0.0038322195 0.0014405714
0.0030552451 0.0020097958 0.002605844
-8.4981470835e-04 -0.0029172726 0.0026035195
-0.006015782 3.2921065087e-04 0.0062460618
-3.4762648556e-04 -0.0012014619 7.8597279222e-04
-0.0015930436 -4.8273661817e-04 -0.0010578402
-0.0020479806 5.6469920744e-04 -0.0015265105
-0.0032451415 -0.0032320401 -9.2379113403e-04
-0.0040784997 0.0026166921 6.826954269e-04
-0.0060217873 -0.0035501711 0.0032794001
-0.0029976966 0.0018611673 0.0043307924
-0.0028927388 -0.0020050305 -0.00349367
-8.7087632445e-04 -7.9640840135e-04 8.8480142924e-04
0.0012200109 -7.2566683907e-05 0.0013524214
-0.0011025239 5.2170471188e-04 -0.001782316
9.6354685855e-04 8.217822598e-04 4.9330389841e-04
3.0616269189e-04 -0.0020599504 -4.4550244989e-04
0.0021503311 0.0014111334 -1.96470005e-04
5.6041452122e-04 0.0019950357 0.0023811511
0.0033008117 2.4753548683e-04 -4.1047768035e-04
-0.0016797385 0.0013426099 -0.0029494029
-8.0288116415e-05 -9.4509516347e-04 -0.0028213791
-0.0036653724 -7.0414338762e-05 3.6032052591e-04
-4.1248918655e-04 -0.0019106623 6.3836988577e-04
0.0016430532 7.4819936976e-04 -8.4283762486e-04
0.0011632734 -0.0013576642 3.2874104901e-04
5.0330705845e-04 -0.0019488729 0.0038326851
0.0045610164 0.0032960812 0.0025752333
0.0034980733 -0.0027010356 -4.2495105147e-04
4.0660418936e-04 -0.0017866005 0.0014471465
2.6743197982e-04 0.0036502791 0.0020301221
0.003893133 0.0010202018 -0.0010358003
-0.00170829 -1.6460191638e-04 2.8087877502e-04
8.4596405375e-04 -0.001175005 0.0014630032
6.6714932247e-05 8.0245005461e-04 -2.1525704311e-04
0.0026863983 -0.0025176682 0.0025941855
3.5145580454e-04 -0.0026523229 0.0018910828
-0.0021276432 0.0024305125 -3.5025738024e-04
0.0039291535 1.0810289802e-04 -0.0036852153
-0.0025430043 0.0011267887 -0.0017977389
-0.0016413565 6.108152051e-04 0.0011786584
-7.3450303413e-04 -0.0033721974 0.0020946069
8.8079606315e-04 3.7359425474e-04 -0.0014372713
8.1923779648e-04 0.0021690077 0.0032506768
-8.0473331665e-04 2.2371764321e-05 -4.6387152864e-04
0.0050612423 -0.0012811982 -0.0013477285
0.0037774203 0.0048984819 8.795112601e-04
0.004642692 -0.0010597171 -0.0024305685
-1.1378643175e-04 6.2445828797e-04 8.0474772031e-04
-4.4894535123e-04 -0.0035339065 -2.031945574e-04
1.0298424409e-04 -0.0052435794 -0.0031042209
-0.0046321153 0.0022616301 -0.0024029426
-3.9353583521e-04 -7.9862146076e-04 8.621112484e-04
2.182618945e-04 -0.0012966773 0.0011530292